\ENCODING=ISO-8859-1
\Problem name: IloCplex

Minimize
 obj1: X(0)#7
Subject To
 c1:  X(0)#0 <= 0
 c2:  X(0)#1 <= 10
 c3:  X(0)#2 <= 5
 c4:  X(0)#3 <= 15
 c5:  X(0)#4 <= 0
 c6:  X(0)#5 <= 0
 c7:  X(0)#6 <= 0
 c8:  X(0)#7 <= 30
 c9:  X(0)#1 + X(0)#2 + X(0)#3 + X(0)#4 + X(0)#5 + X(0)#6 + X(0)#7 - X(1)#8
      - X(2)#16 - X(3)#24 - X(4)#32 - X(5)#40 - X(6)#48 - X(7)#56  = 30
 c10: X(1)#8 <= 0
 c11: X(1)#9 <= 0
 c12: X(1)#10 <= 4
 c13: X(1)#11 <= 0
 c14: X(1)#12 <= 9
 c15: X(1)#13 <= 15
 c16: X(1)#14 <= 0
 c17: X(1)#15 <= 0
 c18: - X(0)#1 + X(1)#8 + X(1)#10 + X(1)#11 + X(1)#12 + X(1)#13 + X(1)#14
      + X(1)#15 - X(2)#17 - X(3)#25 - X(4)#33 - X(5)#41 - X(6)#49 - X(7)#57
       = 0
 c19: X(2)#16 <= 0
 c20: X(2)#17 <= 0
 c21: X(2)#18 <= 0
 c22: X(2)#19 <= 4
 c23: X(2)#20 <= 0
 c24: X(2)#21 <= 8
 c25: X(2)#22 <= 0
 c26: X(2)#23 <= 0
 c27: - X(0)#2 - X(1)#10 + X(2)#16 + X(2)#17 + X(2)#19 + X(2)#20 + X(2)#21
      + X(2)#22 + X(2)#23 - X(3)#26 - X(4)#34 - X(5)#42 - X(6)#50 - X(7)#58
       = 0
 c28: X(3)#24 <= 0
 c29: X(3)#25 <= 0
 c30: X(3)#26 <= 0
 c31: X(3)#27 <= 0
 c32: X(3)#28 <= 0
 c33: X(3)#29 <= 0
 c34: X(3)#30 <= 16
 c35: X(3)#31 <= 0
 c36: - X(0)#3 - X(1)#11 - X(2)#19 + X(3)#24 + X(3)#25 + X(3)#26 + X(3)#28
      + X(3)#29 + X(3)#30 + X(3)#31 - X(4)#35 - X(5)#43 - X(6)#51 - X(7)#59
       = 0
 c37: X(4)#32 <= 0
 c38: X(4)#33 <= 0
 c39: X(4)#34 <= 0
 c40: X(4)#35 <= 0
 c41: X(4)#36 <= 0
 c42: X(4)#37 <= 15
 c43: X(4)#38 <= 0
 c44: X(4)#39 <= 10
 c45: - X(0)#4 - X(1)#12 - X(2)#20 - X(3)#28 + X(4)#32 + X(4)#33 + X(4)#34
      + X(4)#35 + X(4)#37 + X(4)#38 + X(4)#39 - X(5)#44 - X(6)#52 - X(7)#60
       = 0
 c46: X(5)#40 <= 0
 c47: X(5)#41 <= 0
 c48: X(5)#42 <= 0
 c49: X(5)#43 <= 0
 c50: X(5)#44 <= 0
 c51: X(5)#45 <= 0
 c52: X(5)#46 <= 15
 c53: X(5)#47 <= 10
 c54: - X(0)#5 - X(1)#13 - X(2)#21 - X(3)#29 - X(4)#37 + X(5)#40 + X(5)#41
      + X(5)#42 + X(5)#43 + X(5)#44 + X(5)#46 + X(5)#47 - X(6)#53 - X(7)#61
       = 0
 c55: X(6)#48 <= 0
 c56: X(6)#49 <= 0
 c57: X(6)#50 <= 6
 c58: X(6)#51 <= 0
 c59: X(6)#52 <= 0
 c60: X(6)#53 <= 0
 c61: X(6)#54 <= 0
 c62: X(6)#55 <= 10
 c63: - X(0)#6 - X(1)#14 - X(2)#22 - X(3)#30 - X(4)#38 - X(5)#46 + X(6)#48
      + X(6)#49 + X(6)#50 + X(6)#51 + X(6)#52 + X(6)#53 + X(6)#55 - X(7)#62
       = 0
 c64: X(7)#56 <= 0
 c65: X(7)#57 <= 0
 c66: X(7)#58 <= 0
 c67: X(7)#59 <= 0
 c68: X(7)#60 <= 0
 c69: X(7)#61 <= 0
 c70: X(7)#62 <= 0
 c71: X(7)#63 <= 0
 c72: - X(0)#7 - X(1)#15 - X(2)#23 - X(3)#31 - X(4)#39 - X(5)#47 - X(6)#55
      + X(7)#56 + X(7)#57 + X(7)#58 + X(7)#59 + X(7)#60 + X(7)#61 + X(7)#62
       = -30
End
